
  32    4
  10   10   10   10

   0   0   0   0   0   7 2 3 5 7 9 10 11 
   2   1   1   0   1   3 30 14 4 
   4   1   3   0   3   8 31 30 29 18 17 14 12 8 
   6   0   3   3   3   4 29 16 12 6 
   8   5   4   1   0   7 31 30 29 28 27 22 13 
   7   0   3   3   2   3 18 17 8 
   3   3   3   0   5   4 27 22 20 13 
   7   3   0   1   5   3 27 22 13 
  10   2   0   3   4   3 29 16 13 
   5   2   3   0   6   4 30 17 16 15 
   4   4   4   0   6   2 22 13 
   8   0   5   7   5   4 27 26 25 19 
   1   4   0   6   8   2 26 15 
   1   5   5   3   0   2 27 15 
   7   8   0   2   3   2 25 19 
   2   3   6   0   5   2 25 19 
   1   3   3   1   0   1 19 
   5   4   0   2   2   3 28 24 23 
   2   6   4   0   3   2 24 21 
   2   1   5   5   0   2 26 23 
   2   0   3   6   3   1 23 
   5   4   5   0   3   1 25 
   2   2   0   5   5   1 32
   1   6   5   0   9   1 32
   9   6   6   4   0   1 32
   8   6   5  10   0   1 32
   3   8   0   5   2   1 32
   2   2   0   3   3   1 32
   5   9   0   5   3   1 32
   5   0   4   2   1   1 32
   8   2   0   7   6   1 32
   0   0   0   0   0   0 
